Creating DSP environment
Reading SMPS files: /blues/gpfs/home/choy/Siplib/experiment/FULL_INSTANCE/DCAP/LP2/DCAP_3_4_2_300_LP2
Coin0001I At line 1 NAME          DCAP_3_4_2_300_LP2
Coin0001I At line 2 ROWS
Coin0001I At line 24 COLUMNS
Coin0001I At line 101 RHS
Coin0001I At line 112 BOUNDS
Coin0001I At line 151 ENDATA
Coin0002I Problem DCAP_3_4_2_300_LP2 has 20 rows, 44 columns and 77 elements
Coin0001I At line 1 TIME          DCAP_3_4_2_300_LP2
Coin0001I At line 2 PERIODS       IMPLICIT
Coin0001I At line 5 ENDATA

Coin0001I At line 1 STOCH         DCAP_3_4_2_300_LP2
Coin0001I At line 2 SCENARIOS     DISCRETE
Coin0001I At line 17047 ENDATA
Read SMPS files: 0.009403 sec.
Reading parameter files: /blues/gpfs/home/choy/Siplib/experiment/solver_parameters/param_LP2_DSP_de.txt
CPX0000  CPXPARAM_Advance                                 0
CPX0000  CPXPARAM_TimeLimit                               3600
CPX0000  CPXPARAM_Threads                                 36
CPX0000  CPXPARAM_MIP_Limits_Nodes                        100000000
CPX0000  Found incumbent of value 6054.335362 after 0.00 sec. (0.54 ticks)
CPX0000  Tried aggregator 1 time.
CPX0000  Reduced MIP has 4206 rows, 9612 columns, and 19512 nonzeros.
CPX0000  Reduced MIP has 6 binaries, 0 generals, 0 SOSs, and 0 indicators.
CPX0000  Presolve time = 0.01 sec. (8.74 ticks)
CPX0000  Probing time = 0.01 sec. (0.60 ticks)
CPX0000  Tried aggregator 1 time.
CPX0000  Reduced MIP has 4206 rows, 9612 columns, and 19512 nonzeros.
CPX0000  Reduced MIP has 6 binaries, 0 generals, 0 SOSs, and 0 indicators.
CPX0000  Presolve time = 0.02 sec. (10.96 ticks)
CPX0000  Probing time = 0.01 sec. (0.46 ticks)
CPX0000  MIP emphasis: balance optimality and feasibility.
CPX0000  MIP search method: dynamic search.
CPX0000  Parallel mode: deterministic, using up to 36 threads.
CPX0000  Root relaxation solution time = 0.07 sec. (92.58 ticks)
CPX0000
CPX0000          Nodes                                         Cuts/
CPX0000     Node  Left     Objective  IInf  Best Integer    Best Bound    ItCnt     Gap
CPX0000
CPX0000  *     0+    0                         6054.3354        0.0000           100.00%
CPX0000  *     0+    0                          828.4953        0.0000           100.00%
CPX0000        0     0      780.9210     1      828.4953      780.9210     2974    5.74%
CPX0000  *     0+    0                          783.1383      780.9210             0.28%
CPX0000        0     0      781.1471     1      783.1383     Cuts: 648     3295    0.25%
CPX0000        0     0      781.3565     1      783.1383      Cuts: 82     3355    0.23%
CPX0000        0     0      781.3569     1      783.1383    MIRcuts: 7     3365    0.23%
CPX0000        0     0      781.3569     1      783.1383    MIRcuts: 2     3367    0.23%
CPX0000        0     0        cutoff            783.1383      783.1383     3367    0.00%
CPX0000  Elapsed time = 0.34 sec. (294.05 ticks, tree = 0.01 MB
CPX0000
CPX0000  Implied bound cuts applied:  57
CPX0000  Flow cuts applied:  129
CPX0000  Mixed integer rounding cuts applied:  374
CPX0000  Gomory fractional cuts applied:  2
CPX0000
CPX0000  Root node processing (before b&c):
CPX0000    Real time             =    0.34 sec. (294.67 ticks)
CPX0000  Parallel b&c, 36 threads:
CPX0000    Real time             =    0.00 sec. (0.00 ticks)
CPX0000    Sync time (average)   =    0.00 sec.
CPX0000    Wait time (average)   =    0.00 sec.
CPX0000                            ------------
CPX0000  Total (root+branch&cut) =    0.34 sec. (294.67 ticks)
Status: 3000
Primal Bound: 783.138
Dual Bound  : 783.138
